%nprocshared=8
%mem=8GB
# opt geom=connectivity def2svp pbe1pbe

Title Card Required

0 1
 C                 -1.80930899   -7.48144785   -1.36773177
 C                 -0.69032789   -7.69402531   -1.74927280
 C                 -3.24390014   -7.20891264   -0.87857660
 C                  0.74426327   -7.96656051   -2.23842796
 O                  1.05985283   -7.83886750   -3.62731159
 O                 -3.55948970   -7.33660565    0.51030703
 O                  1.63976357   -8.30124488   -1.42011498
 O                 -4.13940045   -6.87422828   -1.69688958
 C                  0.02814610   -8.44657300   -4.40908858
 H                 -0.77730230   -7.75390054   -4.53698592
 H                  0.41990140   -8.71883718   -5.36684638
 H                 -0.33013683   -9.32169782   -3.90839916
 C                 -2.56153682   -6.67205387    1.28964070
 H                 -2.97626636   -6.39029679    2.23489852
 H                 -1.73336520   -7.33133581    1.44577872
 H                 -2.22825922   -5.79727714    0.77138235

 1 2 3.0 3 1.0
 2 4 1.0
 3 6 1.0 8 2.0
 4 5 1.0 7 2.0
 5 9 1.0
 6 13 1.0
 7
 8
 9 10 1.0 11 1.0 12 1.0
 10
 11
 12
 13 14 1.0 15 1.0 16 1.0
 14
 15
 16

